Welcome to the CBC MILP Solver 
Version: Trunk
Build Date: Apr 16 2020 

Starting solution of the Linear programming relaxation problem using Primal Simplex

Using Python-MIP package version 1.8.1
Machines:  4 Jobs:  4
Order: 
Job  0 : machine 0 ( 10 ) machine 3 ( 1 ) machine 2 ( 6 ) machine 1 ( 7 ) 
Job  1 : machine 0 ( 1 ) machine 3 ( 7 ) machine 1 ( 5 ) machine 2 ( 8 ) 
Job  2 : machine 3 ( 9 ) machine 2 ( 3 ) machine 1 ( 7 ) machine 0 ( 1 ) 
Job  3 : machine 1 ( 7 ) machine 3 ( 3 ) machine 0 ( 9 ) machine 2 ( 10 ) 
K:  44
Job  0 , e: machine  0 ( 0 ) machine  1 ( 17 ) machine  2 ( 11 ) machine  3 ( 10 ) 
Job  1 , e: machine  0 ( 0 ) machine  1 ( 8 ) machine  2 ( 13 ) machine  3 ( 1 ) 
Job  2 , e: machine  0 ( 19 ) machine  1 ( 12 ) machine  2 ( 9 ) machine  3 ( 0 ) 
Job  3 , e: machine  0 ( 10 ) machine  1 ( 0 ) machine  2 ( 19 ) machine  3 ( 7 ) 
Job  0 , f: machine  0 ( 14 ) machine  1 ( 0 ) machine  2 ( 7 ) machine  3 ( 13 ) 
Job  1 , f: machine  0 ( 20 ) machine  1 ( 8 ) machine  2 ( 0 ) machine  3 ( 13 ) 
Job  2 , f: machine  0 ( 0 ) machine  1 ( 1 ) machine  2 ( 8 ) machine  3 ( 11 ) 
Job  3 , f: machine  0 ( 10 ) machine  1 ( 22 ) machine  2 ( 0 ) machine  3 ( 19 ) 
EST and LST:
Job: 0 Machine: 0 EST: 0 LST: 20
Job: 0 Machine: 1 EST: 17 LST: 37
Job: 0 Machine: 2 EST: 11 LST: 31
Job: 0 Machine: 3 EST: 10 LST: 30
Job: 1 Machine: 0 EST: 0 LST: 23
Job: 1 Machine: 1 EST: 8 LST: 31
Job: 1 Machine: 2 EST: 13 LST: 36
Job: 1 Machine: 3 EST: 1 LST: 24
Job: 2 Machine: 0 EST: 19 LST: 43
Job: 2 Machine: 1 EST: 12 LST: 36
Job: 2 Machine: 2 EST: 9 LST: 33
Job: 2 Machine: 3 EST: 0 LST: 24
Job: 3 Machine: 0 EST: 10 LST: 25
Job: 3 Machine: 1 EST: 0 LST: 15
Job: 3 Machine: 2 EST: 19 LST: 34
Job: 3 Machine: 3 EST: 7 LST: 22
Order:
Job: 0 Machine: 0 = 0 
Job: 0 Machine: 1 = 3 
Job: 0 Machine: 2 = 2 
Job: 0 Machine: 3 = 1 
Job: 1 Machine: 0 = 0 
Job: 1 Machine: 1 = 2 
Job: 1 Machine: 2 = 3 
Job: 1 Machine: 3 = 1 
Job: 2 Machine: 0 = 3 
Job: 2 Machine: 1 = 2 
Job: 2 Machine: 2 = 1 
Job: 2 Machine: 3 = 0 
Job: 3 Machine: 0 = 2 
Job: 3 Machine: 1 = 0 
Job: 3 Machine: 2 = 3 
Job: 3 Machine: 3 = 1 
Distances:
Job 0, Machine 0 -> Machine 3: distance 10
Job 0, Machine 0 -> Machine 2: distance 11
Job 0, Machine 0 -> Machine 1: distance 17
Job 0, Machine 3 -> Machine 2: distance 1
Job 0, Machine 3 -> Machine 1: distance 7
Job 0, Machine 2 -> Machine 1: distance 6
Job 1, Machine 0 -> Machine 3: distance 1
Job 1, Machine 0 -> Machine 1: distance 8
Job 1, Machine 0 -> Machine 2: distance 13
Job 1, Machine 3 -> Machine 1: distance 7
Job 1, Machine 3 -> Machine 2: distance 12
Job 1, Machine 1 -> Machine 2: distance 5
Job 2, Machine 3 -> Machine 2: distance 9
Job 2, Machine 3 -> Machine 1: distance 12
Job 2, Machine 3 -> Machine 0: distance 19
Job 2, Machine 2 -> Machine 1: distance 3
Job 2, Machine 2 -> Machine 0: distance 10
Job 2, Machine 1 -> Machine 0: distance 7
Job 3, Machine 1 -> Machine 3: distance 7
Job 3, Machine 1 -> Machine 0: distance 10
Job 3, Machine 1 -> Machine 2: distance 19
Job 3, Machine 3 -> Machine 0: distance 3
Job 3, Machine 3 -> Machine 2: distance 12
Job 3, Machine 0 -> Machine 2: distance 9
McCormic linearization
19.0 13.0 7
14.0 13.0 7
19.0 19.0 10
10.0 7.0 7
7.0 1.0 9
[(0, 1), (1, 2), (3, 2), (0, 0), (2, 1), (1, 0)]
obj:  0.6000000000000001
solutions:  1
+ x(0,0) + 0.1x(1,0) 
C:  29.0
x(0,0) = 0.73	 x(0,1) = 19.06	 x(0,2) = 11.73	 x(0,3) = 10.73	 
x(1,0) = 2.73	 x(1,1) = 10.73	 x(1,2) = 20.27	 x(1,3) = 3.73	 
x(2,0) = 24.24	 x(2,1) = 17.24	 x(2,2) = 14.24	 x(2,3) = 5.24	 
x(3,0) = 10.00	 x(3,1) = 0.00	 x(3,2) = 19.00	 x(3,3) = 7.00	 
y(0,1,0) = 0.12	 y(1,0,0) = 0.88	 
y(0,2,0) = 0.56	 y(2,0,0) = 0.44	 
y(0,3,0) = 0.96	 y(3,0,0) = 0.04	 
y(1,2,0) = 0.51	 y(2,1,0) = 0.49	 
y(1,3,0) = 0.74	 y(3,1,0) = 0.26	 
y(2,3,0) = 0.00	 y(3,2,0) = 1.00	 
y(0,1,1) = 0.00	 y(1,0,1) = 1.00	 
y(0,2,1) = 0.20	 y(2,0,1) = 0.80	 
y(0,3,1) = 0.00	 y(3,0,1) = 1.00	 
y(1,2,1) = 0.39	 y(2,1,1) = 0.61	 
y(1,3,1) = 0.16	 y(3,1,1) = 0.84	 
y(2,3,1) = 0.00	 y(3,2,1) = 1.00	 
y(0,1,2) = 0.76	 y(1,0,2) = 0.24	 
y(0,2,2) = 0.46	 y(2,0,2) = 0.54	 
y(0,3,2) = 0.93	 y(3,0,2) = 0.07	 
y(1,2,2) = 0.00	 y(2,1,2) = 1.00	 
y(1,3,2) = 0.28	 y(3,1,2) = 0.72	 
y(2,3,2) = 0.92	 y(3,2,2) = 0.08	 
y(0,1,3) = 0.00	 y(1,0,3) = 1.00	 
y(0,2,3) = 0.15	 y(2,0,3) = 0.85	 
y(0,3,3) = 0.04	 y(3,0,3) = 0.96	 
y(1,2,3) = 0.33	 y(2,1,3) = 0.67	 
y(1,3,3) = 0.26	 y(3,1,3) = 0.74	 
y(2,3,3) = 0.19	 y(3,2,3) = 0.81	 
19.059504933051446 17.23890063424947 7
20.27145415573211 19.000000000000004 10
10.727272727272727 5.238900634249468 9
obj:  0.9174311926605506
solutions:  1
+ 0.09174311926605516x(0,0) + 0.08256880733944955x(3,0) + 0.009174311926605507x(1,0) 
[(0, 1), (0, 0), (3, 0), (2, 1), (1, 0), (0, 2)]
cliques:  1 mip: 56
C:  29.0
x(0,0) = 1.78	 x(0,1) = 18.78	 x(0,2) = 12.78	 x(0,3) = 11.78	 
x(1,0) = 1.24	 x(1,1) = 9.24	 x(1,2) = 21.00	 x(1,3) = 2.24	 
x(2,0) = 19.00	 x(2,1) = 12.00	 x(2,2) = 9.00	 x(2,3) = 0.00	 
x(3,0) = 10.00	 x(3,1) = 0.00	 x(3,2) = 19.00	 x(3,3) = 7.00	 
y(0,1,0) = 0.02	 y(1,0,0) = 0.98	 
y(0,2,0) = 0.61	 y(2,0,0) = 0.39	 
y(0,3,0) = 0.91	 y(3,0,0) = 0.09	 
y(1,2,0) = 0.84	 y(2,1,0) = 0.16	 
y(1,3,0) = 0.68	 y(3,1,0) = 0.32	 
y(2,3,0) = 0.00	 y(3,2,0) = 1.00	 
y(0,1,1) = 0.00	 y(1,0,1) = 1.00	 
y(0,2,1) = 0.01	 y(2,0,1) = 0.99	 
y(0,3,1) = 0.00	 y(3,0,1) = 1.00	 
y(1,2,1) = 0.61	 y(2,1,1) = 0.39	 
y(1,3,1) = 0.09	 y(3,1,1) = 0.91	 
y(2,3,1) = 0.00	 y(3,2,1) = 1.00	 
y(0,1,2) = 0.68	 y(1,0,2) = 0.32	 
y(0,2,2) = 0.06	 y(2,0,2) = 0.94	 
y(0,3,2) = 0.79	 y(3,0,2) = 0.21	 
y(1,2,2) = 0.00	 y(2,1,2) = 1.00	 
y(1,3,2) = 0.26	 y(3,1,2) = 0.74	 
y(2,3,2) = 0.68	 y(3,2,2) = 0.32	 
y(0,1,3) = 0.18	 y(1,0,3) = 0.82	 
y(0,2,3) = 0.13	 y(2,0,3) = 0.87	 
y(0,3,3) = 0.09	 y(3,0,3) = 0.91	 
y(1,2,3) = 0.21	 y(2,1,3) = 0.79	 
y(1,3,3) = 0.32	 y(3,1,3) = 0.68	 
y(2,3,3) = 0.40	 y(3,2,3) = 0.60	 
1.7758726711774446 1.241273288225506 1
19.0 10.000000000000002 9
18.775872671177446 11.999999999999998 7
20.999999999999996 19.0 10
2.241273288225506 0.0 9
obj:  0.9196841505497638
solutions:  1
+ 0.005025125628140715x(0,0) + 0.09045226130653267x(3,0) + 0.005025125628140704x(1,0) 
[(0, 1), (1, 2), (0, 0), (3, 0), (2, 1), (1, 0)]
cliques:  1 mip: 46
C:  30.126338329764465
x(0,0) = 6.13	 x(0,1) = 23.13	 x(0,2) = 17.13	 x(0,3) = 16.13	 
x(1,0) = 0.00	 x(1,1) = 8.00	 x(1,2) = 13.00	 x(1,3) = 1.00	 
x(2,0) = 26.08	 x(2,1) = 19.08	 x(2,2) = 16.08	 x(2,3) = 7.08	 
x(3,0) = 10.72	 x(3,1) = 0.00	 x(3,2) = 19.72	 x(3,3) = 7.00	 
y(0,1,0) = 0.00	 y(1,0,0) = 1.00	 
y(0,2,0) = 0.63	 y(2,0,0) = 0.37	 
y(0,3,0) = 0.73	 y(3,0,0) = 0.27	 
y(1,2,0) = 0.89	 y(2,1,0) = 0.11	 
y(1,3,0) = 0.58	 y(3,1,0) = 0.42	 
y(2,3,0) = 0.27	 y(3,2,0) = 0.73	 
y(0,1,1) = 0.00	 y(1,0,1) = 1.00	 
y(0,2,1) = 0.11	 y(2,0,1) = 0.89	 
y(0,3,1) = 0.00	 y(3,0,1) = 1.00	 
y(1,2,1) = 0.74	 y(2,1,1) = 0.26	 
y(1,3,1) = 0.04	 y(3,1,1) = 0.96	 
y(2,3,1) = 0.00	 y(3,2,1) = 1.00	 
y(0,1,2) = 0.28	 y(1,0,2) = 0.72	 
y(0,2,2) = 0.14	 y(2,0,2) = 0.86	 
y(0,3,2) = 0.81	 y(3,0,2) = 0.19	 
y(1,2,2) = 0.26	 y(2,1,2) = 0.74	 
y(1,3,2) = 0.95	 y(3,1,2) = 0.05	 
y(2,3,2) = 0.97	 y(3,2,2) = 0.03	 
y(0,1,3) = 0.00	 y(1,0,3) = 1.00	 
y(0,2,3) = 0.00	 y(2,0,3) = 1.00	 
y(0,3,3) = 0.31	 y(3,0,3) = 0.69	 
y(1,2,3) = 0.47	 y(2,1,3) = 0.53	 
y(1,3,3) = 0.37	 y(3,1,3) = 0.63	 
y(2,3,3) = 0.15	 y(3,2,3) = 0.85	 
23.12633832976446 19.080459770114967 7
17.12633832976446 13.0 8
17.12633832976446 16.080459770114963 3
7.080459770114967 7.0 3
obj:  0.92759510896756
solutions:  1
+ 0.04672897196261683x(1,2) + 0.018691588785046724x(0,2) 
[(0, 1), (1, 2), (0, 0), (3, 0), (2, 1), (0, 2)]
cliques:  1 mip: 60
C:  31.34115799419089
x(0,0) = 2.45	 x(0,1) = 23.33	 x(0,2) = 17.33	 x(0,3) = 12.45	 
x(1,0) = 0.00	 x(1,1) = 8.00	 x(1,2) = 14.47	 x(1,3) = 1.00	 
x(2,0) = 24.13	 x(2,1) = 17.13	 x(2,2) = 13.30	 x(2,3) = 2.22	 
x(3,0) = 10.92	 x(3,1) = 0.00	 x(3,2) = 20.81	 x(3,3) = 7.92	 
y(0,1,0) = 0.00	 y(1,0,0) = 1.00	 
y(0,2,0) = 0.65	 y(2,0,0) = 0.35	 
y(0,3,0) = 0.92	 y(3,0,0) = 0.08	 
y(1,2,0) = 0.87	 y(2,1,0) = 0.13	 
y(1,3,0) = 0.92	 y(3,1,0) = 0.08	 
y(2,3,0) = 0.18	 y(3,2,0) = 0.82	 
y(0,1,1) = 0.04	 y(1,0,1) = 0.96	 
y(0,2,1) = 0.03	 y(2,0,1) = 0.97	 
y(0,3,1) = 0.00	 y(3,0,1) = 1.00	 
y(1,2,1) = 0.69	 y(2,1,1) = 0.31	 
y(1,3,1) = 0.04	 y(3,1,1) = 0.96	 
y(2,3,1) = 0.00	 y(3,2,1) = 1.00	 
y(0,1,2) = 0.20	 y(1,0,2) = 0.80	 
y(0,2,2) = 0.00	 y(2,0,2) = 1.00	 
y(0,3,2) = 0.41	 y(3,0,2) = 0.59	 
y(1,2,2) = 0.08	 y(2,1,2) = 0.92	 
y(1,3,2) = 0.93	 y(3,1,2) = 0.07	 
y(2,3,2) = 0.80	 y(3,2,2) = 0.20	 
y(0,1,3) = 0.00	 y(1,0,3) = 1.00	 
y(0,2,3) = 0.06	 y(2,0,3) = 0.94	 
y(0,3,3) = 0.07	 y(3,0,3) = 0.93	 
y(1,2,3) = 0.32	 y(2,1,3) = 0.68	 
y(1,3,3) = 0.84	 y(3,1,3) = 0.16	 
y(2,3,3) = 0.35	 y(3,2,3) = 0.65	 
23.331716105040947 17.132264057250516 7
17.331716105040943 14.467313557983625 8
14.467313557983625 13.301797525186538 3
obj:  1.0
erro
[(0, 1), (1, 2), (0, 0), (3, 0), (2, 1), (0, 2)]
cliques:  0 mip: 91
C:  32.238893613923786
x(0,0) = 3.79	 x(0,1) = 21.85	 x(0,2) = 15.85	 x(0,3) = 13.79	 
x(1,0) = 0.66	 x(1,1) = 8.66	 x(1,2) = 15.06	 x(1,3) = 1.66	 
x(2,0) = 25.84	 x(2,1) = 18.84	 x(2,2) = 15.84	 x(2,3) = 4.79	 
x(3,0) = 12.31	 x(3,1) = 0.00	 x(3,2) = 21.85	 x(3,3) = 9.31	 
y(0,1,0) = 0.00	 y(1,0,0) = 1.00	 
y(0,2,0) = 0.72	 y(2,0,0) = 0.28	 
y(0,3,0) = 0.93	 y(3,0,0) = 0.07	 
y(1,2,0) = 0.86	 y(2,1,0) = 0.14	 
y(1,3,0) = 0.94	 y(3,1,0) = 0.06	 
y(2,3,0) = 0.19	 y(3,2,0) = 0.81	 
y(0,1,1) = 0.00	 y(1,0,1) = 1.00	 
y(0,2,1) = 0.15	 y(2,0,1) = 0.85	 
y(0,3,1) = 0.00	 y(3,0,1) = 1.00	 
y(1,2,1) = 0.65	 y(2,1,1) = 0.35	 
y(1,3,1) = 0.07	 y(3,1,1) = 0.93	 
y(2,3,1) = 0.00	 y(3,2,1) = 1.00	 
y(0,1,2) = 0.41	 y(1,0,2) = 0.59	 
y(0,2,2) = 0.20	 y(2,0,2) = 0.80	 
y(0,3,2) = 1.00	 y(3,0,2) = 0.00	 
y(1,2,2) = 0.16	 y(2,1,2) = 0.84	 
y(1,3,2) = 0.95	 y(3,1,2) = 0.05	 
y(2,3,2) = 0.85	 y(3,2,2) = 0.15	 
y(0,1,3) = 0.00	 y(1,0,3) = 1.00	 
y(0,2,3) = 0.00	 y(2,0,3) = 1.00	 
y(0,3,3) = 0.07	 y(3,0,3) = 0.93	 
y(1,2,3) = 0.38	 y(2,1,3) = 0.62	 
y(1,3,3) = 0.87	 y(3,1,3) = 0.13	 
y(2,3,3) = 0.38	 y(3,2,3) = 0.62	 
21.853083033051057 18.839835508686804 7
15.853083033051053 15.058766786779579 8
15.853083033051053 15.839835508686798 3
obj:  0.9999999999999999
erro
[(0, 1), (1, 2), (0, 0), (3, 0), (2, 1), (0, 2)]
cliques:  0 mip: 89
C:  32.99999613746584
x(0,0) = 6.19	 x(0,1) = 26.00	 x(0,2) = 17.19	 x(0,3) = 16.19	 
x(1,0) = 0.00	 x(1,1) = 12.86	 x(1,2) = 18.82	 x(1,3) = 1.78	 
x(2,0) = 30.32	 x(2,1) = 23.32	 x(2,2) = 20.32	 x(2,3) = 10.48	 
x(3,0) = 12.18	 x(3,1) = 0.00	 x(3,2) = 21.18	 x(3,3) = 9.18	 
y(0,1,0) = 0.00	 y(1,0,0) = 1.00	 
y(0,2,0) = 0.71	 y(2,0,0) = 0.29	 
y(0,3,0) = 0.63	 y(3,0,0) = 0.37	 
y(1,2,0) = 0.85	 y(2,1,0) = 0.15	 
y(1,3,0) = 0.77	 y(3,1,0) = 0.23	 
y(2,3,0) = 0.38	 y(3,2,0) = 0.62	 
y(0,1,1) = 0.00	 y(1,0,1) = 1.00	 
y(0,2,1) = 0.17	 y(2,0,1) = 0.83	 
y(0,3,1) = 0.00	 y(3,0,1) = 1.00	 
y(1,2,1) = 0.53	 y(2,1,1) = 0.47	 
y(1,3,1) = 0.24	 y(3,1,1) = 0.76	 
y(2,3,1) = 0.00	 y(3,2,1) = 1.00	 
y(0,1,2) = 0.42	 y(1,0,2) = 0.58	 
y(0,2,2) = 0.25	 y(2,0,2) = 0.75	 
y(0,3,2) = 0.89	 y(3,0,2) = 0.11	 
y(1,2,2) = 0.20	 y(2,1,2) = 0.80	 
y(1,3,2) = 0.77	 y(3,1,2) = 0.23	 
y(2,3,2) = 0.87	 y(3,2,2) = 0.13	 
y(0,1,3) = 0.00	 y(1,0,3) = 1.00	 
y(0,2,3) = 0.14	 y(2,0,3) = 0.86	 
y(0,3,3) = 0.14	 y(3,0,3) = 0.86	 
y(1,2,3) = 0.55	 y(2,1,3) = 0.45	 
y(1,3,3) = 0.43	 y(3,1,3) = 0.57	 
y(2,3,3) = 0.60	 y(3,2,3) = 0.40	 
25.99999613746584 23.321062928984098 7
16.19025368387455 10.477865764407916 9
10.477865764407916 9.178205786126954 3
obj:  1.2008746784808049
erro
[(0, 1), (1, 2), (0, 0), (3, 0), (2, 1), (0, 2)]
cliques:  0 mip: 87
C:  32.99999613746582
x(0,0) = 5.47	 x(0,1) = 26.00	 x(0,2) = 16.47	 x(0,3) = 15.47	 
x(1,0) = 0.00	 x(1,1) = 11.80	 x(1,2) = 17.77	 x(1,3) = 1.00	 
x(2,0) = 28.70	 x(2,1) = 21.70	 x(2,2) = 18.70	 x(2,3) = 9.41	 
x(3,0) = 12.70	 x(3,1) = 0.00	 x(3,2) = 21.70	 x(3,3) = 7.04	 
y(0,1,0) = 0.00	 y(1,0,0) = 1.00	 
y(0,2,0) = 0.74	 y(2,0,0) = 0.26	 
y(0,3,0) = 0.79	 y(3,0,0) = 0.21	 
y(1,2,0) = 0.82	 y(2,1,0) = 0.18	 
y(1,3,0) = 0.82	 y(3,1,0) = 0.18	 
y(2,3,0) = 0.44	 y(3,2,0) = 0.56	 
y(0,1,1) = 0.00	 y(1,0,1) = 1.00	 
y(0,2,1) = 0.10	 y(2,0,1) = 0.90	 
y(0,3,1) = 0.00	 y(3,0,1) = 1.00	 
y(1,2,1) = 0.48	 y(2,1,1) = 0.52	 
y(1,3,1) = 0.20	 y(3,1,1) = 0.80	 
y(2,3,1) = 0.00	 y(3,2,1) = 1.00	 
y(0,1,2) = 0.34	 y(1,0,2) = 0.66	 
y(0,2,2) = 0.21	 y(2,0,2) = 0.79	 
y(0,3,2) = 0.96	 y(3,0,2) = 0.04	 
y(1,2,2) = 0.17	 y(2,1,2) = 0.83	 
y(1,3,2) = 0.84	 y(3,1,2) = 0.16	 
y(2,3,2) = 1.00	 y(3,2,2) = 0.00	 
y(0,1,3) = 0.34	 y(1,0,3) = 0.66	 
y(0,2,3) = 0.13	 y(2,0,3) = 0.87	 
y(0,3,3) = 0.61	 y(3,0,3) = 0.39	 
y(1,2,3) = 0.54	 y(2,1,3) = 0.46	 
y(1,3,3) = 0.57	 y(3,1,3) = 0.43	 
y(2,3,3) = 0.56	 y(3,2,3) = 0.44	 
25.99999613746583 21.695148521231882 7
15.46700618270249 9.413361274145977 9
9.413361274145977 7.042516150177384 3
obj:  1.1382990558431754
erro
[(0, 1), (1, 2), (0, 0), (3, 0), (2, 1), (0, 2)]
cliques:  0 mip: 86
C:  32.99999613746576
x(0,0) = 4.90	 x(0,1) = 26.00	 x(0,2) = 17.16	 x(0,3) = 14.90	 
x(1,0) = 0.42	 x(1,1) = 9.85	 x(1,2) = 14.98	 x(1,3) = 1.42	 
x(2,0) = 32.00	 x(2,1) = 22.50	 x(2,2) = 19.50	 x(2,3) = 10.50	 
x(3,0) = 13.21	 x(3,1) = 0.00	 x(3,2) = 22.50	 x(3,3) = 7.00	 
y(0,1,0) = 0.00	 y(1,0,0) = 1.00	 
y(0,2,0) = 0.77	 y(2,0,0) = 0.23	 
y(0,3,0) = 0.92	 y(3,0,0) = 0.08	 
y(1,2,0) = 0.79	 y(2,1,0) = 0.21	 
y(1,3,0) = 0.98	 y(3,1,0) = 0.02	 
y(2,3,0) = 0.00	 y(3,2,0) = 1.00	 
y(0,1,1) = 0.08	 y(1,0,1) = 0.92	 
y(0,2,1) = 0.13	 y(2,0,1) = 0.87	 
y(0,3,1) = 0.00	 y(3,0,1) = 1.00	 
y(1,2,1) = 0.56	 y(2,1,1) = 0.44	 
y(1,3,1) = 0.12	 y(3,1,1) = 0.88	 
y(2,3,1) = 0.00	 y(3,2,1) = 1.00	 
y(0,1,2) = 0.18	 y(1,0,2) = 0.82	 
y(0,2,2) = 0.21	 y(2,0,2) = 0.79	 
y(0,3,2) = 0.96	 y(3,0,2) = 0.04	 
y(1,2,2) = 0.33	 y(2,1,2) = 0.67	 
y(1,3,2) = 0.98	 y(3,1,2) = 0.02	 
y(2,3,2) = 1.00	 y(3,2,2) = 0.00	 
y(0,1,3) = 0.04	 y(1,0,3) = 0.96	 
y(0,2,3) = 0.20	 y(2,0,3) = 0.80	 
y(0,3,3) = 0.54	 y(3,0,3) = 0.46	 
y(1,2,3) = 0.56	 y(2,1,3) = 0.44	 
y(1,3,3) = 0.94	 y(3,1,3) = 0.06	 
y(2,3,3) = 0.52	 y(3,2,3) = 0.48	 
25.999996137465757 22.497503465268913 7
17.16146189978804 14.984969939778718 8
14.897898327417327 10.497503465268917 9
obj:  1.0210072289576604
erro
[(0, 1), (1, 2), (0, 0), (3, 0), (2, 1), (0, 2)]
cliques:  0 mip: 79
C:  32.99999613746576
x(0,0) = 4.90	 x(0,1) = 26.00	 x(0,2) = 17.16	 x(0,3) = 14.90	 
x(1,0) = 0.42	 x(1,1) = 9.85	 x(1,2) = 14.98	 x(1,3) = 1.42	 
x(2,0) = 32.00	 x(2,1) = 22.50	 x(2,2) = 19.50	 x(2,3) = 10.50	 
x(3,0) = 13.21	 x(3,1) = 0.00	 x(3,2) = 22.50	 x(3,3) = 7.00	 
y(0,1,0) = 0.00	 y(1,0,0) = 1.00	 
y(0,2,0) = 0.77	 y(2,0,0) = 0.23	 
y(0,3,0) = 0.92	 y(3,0,0) = 0.08	 
y(1,2,0) = 0.79	 y(2,1,0) = 0.21	 
y(1,3,0) = 0.98	 y(3,1,0) = 0.02	 
y(2,3,0) = 0.00	 y(3,2,0) = 1.00	 
y(0,1,1) = 0.08	 y(1,0,1) = 0.92	 
y(0,2,1) = 0.13	 y(2,0,1) = 0.87	 
y(0,3,1) = 0.00	 y(3,0,1) = 1.00	 
y(1,2,1) = 0.56	 y(2,1,1) = 0.44	 
y(1,3,1) = 0.12	 y(3,1,1) = 0.88	 
y(2,3,1) = 0.00	 y(3,2,1) = 1.00	 
y(0,1,2) = 0.18	 y(1,0,2) = 0.82	 
y(0,2,2) = 0.21	 y(2,0,2) = 0.79	 
y(0,3,2) = 0.96	 y(3,0,2) = 0.04	 
y(1,2,2) = 0.33	 y(2,1,2) = 0.67	 
y(1,3,2) = 0.98	 y(3,1,2) = 0.02	 
y(2,3,2) = 1.00	 y(3,2,2) = 0.00	 
y(0,1,3) = 0.04	 y(1,0,3) = 0.96	 
y(0,2,3) = 0.20	 y(2,0,3) = 0.80	 
y(0,3,3) = 0.54	 y(3,0,3) = 0.46	 
y(1,2,3) = 0.56	 y(2,1,3) = 0.44	 
y(1,3,3) = 0.94	 y(3,1,3) = 0.06	 
y(2,3,3) = 0.52	 y(3,2,3) = 0.48	 
25.999996137465757 22.497503465268913 7
17.16146189978804 14.984969939778718 8
14.897898327417327 10.497503465268917 9
obj:  1.0210072289576604
erro
[(0, 1), (1, 2), (0, 0), (3, 0), (2, 1), (0, 2)]
cliques:  0 mip: 79
C:  32.99999613746576
x(0,0) = 4.90	 x(0,1) = 26.00	 x(0,2) = 17.16	 x(0,3) = 14.90	 
x(1,0) = 0.42	 x(1,1) = 9.85	 x(1,2) = 14.98	 x(1,3) = 1.42	 
x(2,0) = 32.00	 x(2,1) = 22.50	 x(2,2) = 19.50	 x(2,3) = 10.50	 
x(3,0) = 13.21	 x(3,1) = 0.00	 x(3,2) = 22.50	 x(3,3) = 7.00	 
y(0,1,0) = 0.00	 y(1,0,0) = 1.00	 
y(0,2,0) = 0.77	 y(2,0,0) = 0.23	 
y(0,3,0) = 0.92	 y(3,0,0) = 0.08	 
y(1,2,0) = 0.79	 y(2,1,0) = 0.21	 
y(1,3,0) = 0.98	 y(3,1,0) = 0.02	 
y(2,3,0) = 0.00	 y(3,2,0) = 1.00	 
y(0,1,1) = 0.08	 y(1,0,1) = 0.92	 
y(0,2,1) = 0.13	 y(2,0,1) = 0.87	 
y(0,3,1) = 0.00	 y(3,0,1) = 1.00	 
y(1,2,1) = 0.56	 y(2,1,1) = 0.44	 
y(1,3,1) = 0.12	 y(3,1,1) = 0.88	 
y(2,3,1) = 0.00	 y(3,2,1) = 1.00	 
y(0,1,2) = 0.18	 y(1,0,2) = 0.82	 
y(0,2,2) = 0.21	 y(2,0,2) = 0.79	 
y(0,3,2) = 0.96	 y(3,0,2) = 0.04	 
y(1,2,2) = 0.33	 y(2,1,2) = 0.67	 
y(1,3,2) = 0.98	 y(3,1,2) = 0.02	 
y(2,3,2) = 1.00	 y(3,2,2) = 0.00	 
y(0,1,3) = 0.04	 y(1,0,3) = 0.96	 
y(0,2,3) = 0.20	 y(2,0,3) = 0.80	 
y(0,3,3) = 0.54	 y(3,0,3) = 0.46	 
y(1,2,3) = 0.56	 y(2,1,3) = 0.44	 
y(1,3,3) = 0.94	 y(3,1,3) = 0.06	 
y(2,3,3) = 0.52	 y(3,2,3) = 0.48	 
25.999996137465757 22.497503465268913 7
17.16146189978804 14.984969939778718 8
14.897898327417327 10.497503465268917 9
obj:  1.0210072289576604
erro
[(0, 1), (1, 2), (0, 0), (3, 0), (2, 1), (0, 2)]
cliques:  0 mip: 79
C:  32.99999613746576
x(0,0) = 4.90	 x(0,1) = 26.00	 x(0,2) = 17.16	 x(0,3) = 14.90	 
x(1,0) = 0.42	 x(1,1) = 9.85	 x(1,2) = 14.98	 x(1,3) = 1.42	 
x(2,0) = 32.00	 x(2,1) = 22.50	 x(2,2) = 19.50	 x(2,3) = 10.50	 
x(3,0) = 13.21	 x(3,1) = 0.00	 x(3,2) = 22.50	 x(3,3) = 7.00	 
y(0,1,0) = 0.00	 y(1,0,0) = 1.00	 
y(0,2,0) = 0.77	 y(2,0,0) = 0.23	 
y(0,3,0) = 0.92	 y(3,0,0) = 0.08	 
y(1,2,0) = 0.79	 y(2,1,0) = 0.21	 
y(1,3,0) = 0.98	 y(3,1,0) = 0.02	 
y(2,3,0) = 0.00	 y(3,2,0) = 1.00	 
y(0,1,1) = 0.08	 y(1,0,1) = 0.92	 
y(0,2,1) = 0.13	 y(2,0,1) = 0.87	 
y(0,3,1) = 0.00	 y(3,0,1) = 1.00	 
y(1,2,1) = 0.56	 y(2,1,1) = 0.44	 
y(1,3,1) = 0.12	 y(3,1,1) = 0.88	 
y(2,3,1) = 0.00	 y(3,2,1) = 1.00	 
y(0,1,2) = 0.18	 y(1,0,2) = 0.82	 
y(0,2,2) = 0.21	 y(2,0,2) = 0.79	 
y(0,3,2) = 0.96	 y(3,0,2) = 0.04	 
y(1,2,2) = 0.33	 y(2,1,2) = 0.67	 
y(1,3,2) = 0.98	 y(3,1,2) = 0.02	 
y(2,3,2) = 1.00	 y(3,2,2) = 0.00	 
y(0,1,3) = 0.04	 y(1,0,3) = 0.96	 
y(0,2,3) = 0.20	 y(2,0,3) = 0.80	 
y(0,3,3) = 0.54	 y(3,0,3) = 0.46	 
y(1,2,3) = 0.56	 y(2,1,3) = 0.44	 
y(1,3,3) = 0.94	 y(3,1,3) = 0.06	 
y(2,3,3) = 0.52	 y(3,2,3) = 0.48	 
25.999996137465757 22.497503465268913 7
17.16146189978804 14.984969939778718 8
14.897898327417327 10.497503465268917 9
obj:  1.0210072289576604
erro
[(0, 1), (1, 2), (0, 0), (3, 0), (2, 1), (0, 2)]
cliques:  0 mip: 79
C:  32.99999613746576
x(0,0) = 4.90	 x(0,1) = 26.00	 x(0,2) = 17.16	 x(0,3) = 14.90	 
x(1,0) = 0.42	 x(1,1) = 9.85	 x(1,2) = 14.98	 x(1,3) = 1.42	 
x(2,0) = 32.00	 x(2,1) = 22.50	 x(2,2) = 19.50	 x(2,3) = 10.50	 
x(3,0) = 13.21	 x(3,1) = 0.00	 x(3,2) = 22.50	 x(3,3) = 7.00	 
y(0,1,0) = 0.00	 y(1,0,0) = 1.00	 
y(0,2,0) = 0.77	 y(2,0,0) = 0.23	 
y(0,3,0) = 0.92	 y(3,0,0) = 0.08	 
y(1,2,0) = 0.79	 y(2,1,0) = 0.21	 
y(1,3,0) = 0.98	 y(3,1,0) = 0.02	 
y(2,3,0) = 0.00	 y(3,2,0) = 1.00	 
y(0,1,1) = 0.08	 y(1,0,1) = 0.92	 
y(0,2,1) = 0.13	 y(2,0,1) = 0.87	 
y(0,3,1) = 0.00	 y(3,0,1) = 1.00	 
y(1,2,1) = 0.56	 y(2,1,1) = 0.44	 
y(1,3,1) = 0.12	 y(3,1,1) = 0.88	 
y(2,3,1) = 0.00	 y(3,2,1) = 1.00	 
y(0,1,2) = 0.18	 y(1,0,2) = 0.82	 
y(0,2,2) = 0.21	 y(2,0,2) = 0.79	 
y(0,3,2) = 0.96	 y(3,0,2) = 0.04	 
y(1,2,2) = 0.33	 y(2,1,2) = 0.67	 
y(1,3,2) = 0.98	 y(3,1,2) = 0.02	 
y(2,3,2) = 1.00	 y(3,2,2) = 0.00	 
y(0,1,3) = 0.04	 y(1,0,3) = 0.96	 
y(0,2,3) = 0.20	 y(2,0,3) = 0.80	 
y(0,3,3) = 0.54	 y(3,0,3) = 0.46	 
y(1,2,3) = 0.56	 y(2,1,3) = 0.44	 
y(1,3,3) = 0.94	 y(3,1,3) = 0.06	 
y(2,3,3) = 0.52	 y(3,2,3) = 0.48	 
25.999996137465757 22.497503465268913 7
17.16146189978804 14.984969939778718 8
14.897898327417327 10.497503465268917 9
obj:  1.0210072289576604
erro
[(0, 1), (1, 2), (0, 0), (3, 0), (2, 1), (0, 2)]
cliques:  0 mip: 79
C:  32.99999613746576
x(0,0) = 4.90	 x(0,1) = 26.00	 x(0,2) = 17.16	 x(0,3) = 14.90	 
x(1,0) = 0.42	 x(1,1) = 9.85	 x(1,2) = 14.98	 x(1,3) = 1.42	 
x(2,0) = 32.00	 x(2,1) = 22.50	 x(2,2) = 19.50	 x(2,3) = 10.50	 
x(3,0) = 13.21	 x(3,1) = 0.00	 x(3,2) = 22.50	 x(3,3) = 7.00	 
y(0,1,0) = 0.00	 y(1,0,0) = 1.00	 
y(0,2,0) = 0.77	 y(2,0,0) = 0.23	 
y(0,3,0) = 0.92	 y(3,0,0) = 0.08	 
y(1,2,0) = 0.79	 y(2,1,0) = 0.21	 
y(1,3,0) = 0.98	 y(3,1,0) = 0.02	 
y(2,3,0) = 0.00	 y(3,2,0) = 1.00	 
y(0,1,1) = 0.08	 y(1,0,1) = 0.92	 
y(0,2,1) = 0.13	 y(2,0,1) = 0.87	 
y(0,3,1) = 0.00	 y(3,0,1) = 1.00	 
y(1,2,1) = 0.56	 y(2,1,1) = 0.44	 
y(1,3,1) = 0.12	 y(3,1,1) = 0.88	 
y(2,3,1) = 0.00	 y(3,2,1) = 1.00	 
y(0,1,2) = 0.18	 y(1,0,2) = 0.82	 
y(0,2,2) = 0.21	 y(2,0,2) = 0.79	 
y(0,3,2) = 0.96	 y(3,0,2) = 0.04	 
y(1,2,2) = 0.33	 y(2,1,2) = 0.67	 
y(1,3,2) = 0.98	 y(3,1,2) = 0.02	 
y(2,3,2) = 1.00	 y(3,2,2) = 0.00	 
y(0,1,3) = 0.04	 y(1,0,3) = 0.96	 
y(0,2,3) = 0.20	 y(2,0,3) = 0.80	 
y(0,3,3) = 0.54	 y(3,0,3) = 0.46	 
y(1,2,3) = 0.56	 y(2,1,3) = 0.44	 
y(1,3,3) = 0.94	 y(3,1,3) = 0.06	 
y(2,3,3) = 0.52	 y(3,2,3) = 0.48	 
25.999996137465757 22.497503465268913 7
17.16146189978804 14.984969939778718 8
14.897898327417327 10.497503465268917 9
obj:  1.0210072289576604
erro
[(0, 1), (1, 2), (0, 0), (3, 0), (2, 1), (0, 2)]
cliques:  0 mip: 79
C:  32.99999613746576
x(0,0) = 4.90	 x(0,1) = 26.00	 x(0,2) = 17.16	 x(0,3) = 14.90	 
x(1,0) = 0.42	 x(1,1) = 9.85	 x(1,2) = 14.98	 x(1,3) = 1.42	 
x(2,0) = 32.00	 x(2,1) = 22.50	 x(2,2) = 19.50	 x(2,3) = 10.50	 
x(3,0) = 13.21	 x(3,1) = 0.00	 x(3,2) = 22.50	 x(3,3) = 7.00	 
y(0,1,0) = 0.00	 y(1,0,0) = 1.00	 
y(0,2,0) = 0.77	 y(2,0,0) = 0.23	 
y(0,3,0) = 0.92	 y(3,0,0) = 0.08	 
y(1,2,0) = 0.79	 y(2,1,0) = 0.21	 
y(1,3,0) = 0.98	 y(3,1,0) = 0.02	 
y(2,3,0) = 0.00	 y(3,2,0) = 1.00	 
y(0,1,1) = 0.08	 y(1,0,1) = 0.92	 
y(0,2,1) = 0.13	 y(2,0,1) = 0.87	 
y(0,3,1) = 0.00	 y(3,0,1) = 1.00	 
y(1,2,1) = 0.56	 y(2,1,1) = 0.44	 
y(1,3,1) = 0.12	 y(3,1,1) = 0.88	 
y(2,3,1) = 0.00	 y(3,2,1) = 1.00	 
y(0,1,2) = 0.18	 y(1,0,2) = 0.82	 
y(0,2,2) = 0.21	 y(2,0,2) = 0.79	 
y(0,3,2) = 0.96	 y(3,0,2) = 0.04	 
y(1,2,2) = 0.33	 y(2,1,2) = 0.67	 
y(1,3,2) = 0.98	 y(3,1,2) = 0.02	 
y(2,3,2) = 1.00	 y(3,2,2) = 0.00	 
y(0,1,3) = 0.04	 y(1,0,3) = 0.96	 
y(0,2,3) = 0.20	 y(2,0,3) = 0.80	 
y(0,3,3) = 0.54	 y(3,0,3) = 0.46	 
y(1,2,3) = 0.56	 y(2,1,3) = 0.44	 
y(1,3,3) = 0.94	 y(3,1,3) = 0.06	 
y(2,3,3) = 0.52	 y(3,2,3) = 0.48	 
25.999996137465757 22.497503465268913 7
17.16146189978804 14.984969939778718 8
14.897898327417327 10.497503465268917 9
obj:  1.0210072289576604
erro
[(0, 1), (1, 2), (0, 0), (3, 0), (2, 1), (0, 2)]
cliques:  0 mip: 0
iterações: 14 cortes cliques encontrados: 4 mip: 1007 objective:  32.99999613746576
Coin0506I Presolve 157 (-171) rows, 90 (-71) columns and 490 (-260) elements
Clp1000I sum of infeasibilities 1.79124e-08 - average 1.14092e-10, 0 fixed columns
Coin0506I Presolve 157 (0) rows, 90 (0) columns and 490 (0) elements
Clp0029I End of values pass after 90 iterations
Clp0000I Optimal - objective value 29
Clp0000I Optimal - objective value 29
Coin0511I After Postsolve, objective 29, infeasibilities - dual 0 (0), primal 0 (0)
Clp0000I Optimal - objective value 29
Clp0000I Optimal - objective value 29
Clp0000I Optimal - objective value 29
Coin0511I After Postsolve, objective 29, infeasibilities - dual 0 (0), primal 0 (0)
Clp0032I Optimal objective 29 - 0 iterations time 0.012, Presolve 0.00, Idiot 0.01
Coin3009W Conflict graph built in 0.000 seconds, density: 0.098%
